data_phys_i13
_audit_creation_date              2014-12-16
_audit_creation_method
;
Olex2 1.2
(compiled 2014.11.28 svn.r3106 for OlexSys, GUI svn.r4959)
;
_publ_contact_author_address      ?
_publ_contact_author_email        ?
_publ_contact_author_name         ''
_publ_contact_author_phone        ?
_publ_section_references
;
Dolomanov, O.V., Bourhis, L.J., Gildea, R.J, Howard, J.A.K. & Puschmann, H.
 (2009), J. Appl. Cryst. 42, 339-341.

Sheldrick, G.M. (2008). Acta Cryst. A64, 112-122.
;
_chemical_name_common             ?
_chemical_name_systematic         ?
_chemical_formula_moiety          'C43 H65 Dy N2 O6'
_chemical_formula_sum             'C43 H65 Dy N2 O6'
_chemical_formula_weight          868.47
_chemical_melting_point           ?
loop_
  _atom_type_symbol
  _atom_type_description
  _atom_type_scat_dispersion_real
  _atom_type_scat_dispersion_imag
  _atom_type_scat_source
 'C' 'C' -0.0010 0.0000 'International Tables Vol C Tables 4.2.6.8 and 6.1.1.4'
 'H' 'H' 0.0000 0.0000 'International Tables Vol C Tables 4.2.6.8 and 6.1.1.4'
 'Dy' 'Dy' -0.9540 1.3130
 'International Tables Vol C Tables 4.2.6.8 and 6.1.1.4'
 'N' 'N' 0.0000 0.0010 'International Tables Vol C Tables 4.2.6.8 and 6.1.1.4'
 'O' 'O' 0.0000 0.0010 'International Tables Vol C Tables 4.2.6.8 and 6.1.1.4'

_shelx_space_group_comment
;
The symmetry employed for this shelxl refinement is uniquely defined
by the following loop, which should always be used as a source of
symmetry information in preference to the above space-group names.
They are only intended as comments.
;
_space_group_crystal_system       'triclinic'
_space_group_IT_number            2
_space_group_name_H-M_alt         'P -1'
_space_group_name_Hall            '-P 1'
loop_
  _space_group_symop_operation_xyz
 'x, y, z'
 '-x, -y, -z'

_cell_length_a                    11.0343(3)
_cell_length_b                    12.2286(3)
_cell_length_c                    17.5339(5)
_cell_angle_alpha                 77.103(5)
_cell_angle_beta                  85.701(6)
_cell_angle_gamma                 69.694(5)
_cell_volume                      2162.90(13)
_cell_formula_units_Z             2
_cell_measurement_reflns_used     ?
_cell_measurement_temperature     20(2)
_cell_measurement_theta_max       ?
_cell_measurement_theta_min       ?
_shelx_estimated_absorpt_T_max    ?
_shelx_estimated_absorpt_T_min    ?
_exptl_absorpt_coefficient_mu     0.292
_exptl_absorpt_correction_T_max   ?
_exptl_absorpt_correction_T_min   ?
_exptl_absorpt_correction_type    none
_exptl_absorpt_process_details    ?
_exptl_absorpt_special_details    ?
_exptl_crystal_colour             yellow
_exptl_crystal_density_diffrn     1.334
_exptl_crystal_density_meas       ?
_exptl_crystal_density_method     ?
_exptl_crystal_description        ?
_exptl_crystal_F_000              902
_exptl_crystal_size_max           0.11
_exptl_crystal_size_mid           0.09
_exptl_crystal_size_min           0.08
_exptl_transmission_factor_max    ?
_exptl_transmission_factor_min    ?
_diffrn_reflns_av_R_equivalents   ?
_diffrn_reflns_av_unetI/netI      0.0756
_diffrn_reflns_Laue_measured_fraction_full 1.000
_diffrn_reflns_Laue_measured_fraction_max 0.977
_diffrn_reflns_limit_h_max        ?
_diffrn_reflns_limit_h_min        ?
_diffrn_reflns_limit_k_max        ?
_diffrn_reflns_limit_k_min        ?
_diffrn_reflns_limit_l_max        ?
_diffrn_reflns_limit_l_min        ?
_diffrn_reflns_number             69836
_diffrn_reflns_point_group_measured_fraction_full 1.000
_diffrn_reflns_point_group_measured_fraction_max 0.977
_diffrn_reflns_theta_full         12.232
_diffrn_reflns_theta_max          26.285
_diffrn_reflns_theta_min          0.902
_diffrn_ambient_temperature       20.15
_diffrn_detector_area_resol_mean  ?
_diffrn_measured_fraction_theta_full 1.000
_diffrn_measured_fraction_theta_max 0.977
_diffrn_measurement_device_type   ?
_diffrn_measurement_method        ?
_diffrn_radiation_type            ?
_diffrn_radiation_wavelength      0.35312
_diffrn_source                    ?
_reflns_Friedel_coverage          0.000
_reflns_Friedel_fraction_full     .
_reflns_Friedel_fraction_max      .
_reflns_number_gt                 55656
_reflns_number_total              69836
_reflns_special_details
;
 Reflections were merged by SHELXL according to the crystal
 class for the calculation of statistics and refinement.
 
 _reflns_Friedel_fraction is defined as the number of unique
 Friedel pairs measured divided by the number that would be
 possible theoretically, ignoring centric projections and
 systematic absences.
;
_reflns_threshold_expression      'I > 2\s(I)'
_computing_cell_refinement        ?
_computing_data_collection        ?
_computing_data_reduction         ?
_computing_molecular_graphics     'Olex2 (Dolomanov et al., 2009)'
_computing_publication_material   'Olex2 (Dolomanov et al., 2009)'
_computing_structure_refinement   'ShelXL (Sheldrick, 2008)'
_computing_structure_solution     ?
_refine_diff_density_max          9.569
_refine_diff_density_min          -11.582
_refine_diff_density_rms          0.318
_refine_ls_extinction_coef        .
_refine_ls_extinction_method      none
_refine_ls_goodness_of_fit_ref    0.949
_refine_ls_hydrogen_treatment     constr
_refine_ls_matrix_type            full
_refine_ls_number_parameters      487
_refine_ls_number_reflns          69836
_refine_ls_number_restraints      0
_refine_ls_R_factor_all           0.0593
_refine_ls_R_factor_gt            0.0445
_refine_ls_restrained_S_all       0.949
_refine_ls_shift/su_max           0.003
_refine_ls_shift/su_mean          0.000
_refine_ls_structure_factor_coef  Fsqd
_refine_ls_weighting_details
'w=1/[\s^2^(Fo^2^)+(0.0679P)^2^] where P=(Fo^2^+2Fc^2^)/3'
_refine_ls_weighting_scheme       calc
_refine_ls_wR_factor_gt           0.1170
_refine_ls_wR_factor_ref          0.1299
_refine_special_details           ?
_olex2_refinement_description
;
1. Fixed Uiso
 At 1.2 times of:
  All C(H) groups
 At 1.5 times of:
  All C(H,H,H) groups
2.a Aromatic/amide H refined with riding coordinates:
 C1(H1), C2(H2), C3(H3), C4(H4), C7(H7), C8(H8), C9(H9), C10(H10), C16(H16),
 C27(H27), C38(H38)
2.b Idealised Me refined as rotating group:
 C11(H11A,H11B,H11C), C12(H12A,H12B,H12C), C13(H13A,H13B,H13C), C19(H19A,H19B,
 H19C), C20(H20A,H20B,H20C), C21(H21A,H21B,H21C), C22(H22A,H22B,H22C), C23(H23A,
 H23B,H23C), C25(H25A,H25B,H25C), C30(H30A,H30B,H30C), C31(H31A,H31B,H31C),
 C32(H32A,H32B,H32C), C33(H33A,H33B,H33C), C34(H34A,H34B,H34C), C35(H35A,H35B,
 H35C), C41(H41A,H41B,H41C), C42(H42A,H42B,H42C), C43(H43A,H43B,H43C)
;
_atom_sites_solution_hydrogens    geom
_atom_sites_solution_primary      ?
_atom_sites_solution_secondary    ?
loop_
  _atom_site_label
  _atom_site_type_symbol
  _atom_site_fract_x
  _atom_site_fract_y
  _atom_site_fract_z
  _atom_site_U_iso_or_equiv
  _atom_site_adp_type
  _atom_site_occupancy
  _atom_site_site_symmetry_order
  _atom_site_calc_flag
  _atom_site_refinement_flags_posn
  _atom_site_refinement_flags_adp
  _atom_site_refinement_flags_occupancy
  _atom_site_disorder_assembly
  _atom_site_disorder_group
 Dy1 Dy 0.88915(2) 0.55109(2) 0.23463(2) 0.01071(1) Uani 1 1 d . . . . .
 N1 N 1.10182(8) 0.50465(8) 0.15551(6) 0.01428(10) Uani 1 1 d . . . . .
 N2 N 0.91198(8) 0.43167(8) 0.12648(6) 0.01439(10) Uani 1 1 d . . . . .
 O1 O 1.02879(7) 0.36466(6) 0.28951(5) 0.01496(10) Uani 1 1 d . . . . .
 O2 O 0.76571(7) 0.43293(7) 0.28433(5) 0.01455(9) Uani 1 1 d . . . . .
 O3 O 1.01713(7) 0.59041(7) 0.31942(5) 0.01506(10) Uani 1 1 d . . . . .
 O4 O 0.75094(7) 0.66674(8) 0.31186(5) 0.01564(10) Uani 1 1 d . . . . .
 O5 O 0.91082(7) 0.72955(7) 0.16574(6) 0.01622(11) Uani 1 1 d . . . . .
 O6 O 0.70835(8) 0.65184(7) 0.15288(6) 0.01596(10) Uani 1 1 d . . . . .
 C1 C 1.19420(10) 0.54281(10) 0.17310(7) 0.01648(13) Uani 1 1 d . . . . .
 H1 H 1.1732 0.5975 0.2069 0.020 Uiso 1 1 calc R . . . .
 C2 C 1.31964(10) 0.50600(12) 0.14413(8) 0.01938(16) Uani 1 1 d . . . . .
 H2 H 1.3824 0.5357 0.1574 0.023 Uiso 1 1 calc R . . . .
 C3 C 1.35079(11) 0.42494(14) 0.09540(9) 0.0226(2) Uani 1 1 d . . . . .
 H3 H 1.4360 0.3965 0.0757 0.027 Uiso 1 1 calc R . . . .
 C4 C 1.25512(11) 0.38609(13) 0.07588(9) 0.02081(18) Uani 1 1 d . . . . .
 H4 H 1.2738 0.3314 0.0421 0.025 Uiso 1 1 calc R . . . .
 C5 C 1.13106(9) 0.42856(9) 0.10658(7) 0.01494(12) Uani 1 1 d . . . . .
 C6 C 1.02337(9) 0.39295(9) 0.08717(6) 0.01453(11) Uani 1 1 d . . . . .
 C7 C 1.03457(12) 0.32721(11) 0.02958(7) 0.01807(15) Uani 1 1 d . . . . .
 H7 H 1.1131 0.3024 0.0017 0.022 Uiso 1 1 calc R . . . .
 C8 C 0.92881(13) 0.29869(12) 0.01378(8) 0.02003(17) Uani 1 1 d . . . . .
 H8 H 0.9342 0.2542 -0.0251 0.024 Uiso 1 1 calc R . . . .
 C9 C 0.81520(13) 0.33600(12) 0.05561(8) 0.01972(16) Uani 1 1 d . . . . .
 H9 H 0.7423 0.3160 0.0468 0.024 Uiso 1 1 calc R . . . .
 C10 C 0.81090(10) 0.40348(11) 0.11091(7) 0.01703(14) Uani 1 1 d . . . . .
 H10 H 0.7328 0.4306 0.1387 0.020 Uiso 1 1 calc R . . . .
 C11 C 1.26578(10) 0.20708(11) 0.31055(9) 0.02084(18) Uani 1 1 d . . . . .
 H11A H 1.3484 0.1410 0.3187 0.031 Uiso 1 1 calc GR . . . .
 H11B H 1.2581 0.2580 0.3479 0.031 Uiso 1 1 calc GR . . . .
 H11C H 1.2620 0.2541 0.2571 0.031 Uiso 1 1 calc GR . . . .
 C12 C 1.16367(12) 0.08032(12) 0.26291(9) 0.02155(18) Uani 1 1 d . . . . .
 H12A H 1.1585 0.1293 0.2100 0.032 Uiso 1 1 calc GR . . . .
 H12B H 1.0923 0.0486 0.2709 0.032 Uiso 1 1 calc GR . . . .
 H12C H 1.2462 0.0141 0.2695 0.032 Uiso 1 1 calc GR . . . .
 C13 C 1.16170(11) 0.08084(11) 0.40618(8) 0.01939(16) Uani 1 1 d . . . . .
 H13A H 1.2472 0.0190 0.4147 0.029 Uiso 1 1 calc GR . . . .
 H13B H 1.0953 0.0432 0.4125 0.029 Uiso 1 1 calc GR . . . .
 H13C H 1.1474 0.1316 0.4444 0.029 Uiso 1 1 calc GR . . . .
 C14 C 1.15421(9) 0.15707(9) 0.32310(7) 0.01522(12) Uani 1 1 d . . . . .
 C15 C 1.02412(8) 0.26086(8) 0.31080(6) 0.01340(11) Uani 1 1 d . . . . .
 C16 C 0.90799(9) 0.23513(9) 0.32450(7) 0.01589(13) Uani 1 1 d . . . . .
 H16 H 0.9134 0.1542 0.3419 0.019 Uiso 1 1 calc R . . . .
 C17 C 0.78512(8) 0.32337(8) 0.31361(6) 0.01354(11) Uani 1 1 d . . . . .
 C18 C 0.66218(9) 0.29128(9) 0.33643(7) 0.01589(13) Uani 1 1 d . . . . .
 C19 C 0.68817(12) 0.16275(12) 0.38136(10) 0.02201(19) Uani 1 1 d . . . . .
 H19A H 0.7400 0.1076 0.3489 0.033 Uiso 1 1 calc GR . . . .
 H19B H 0.6059 0.1492 0.3942 0.033 Uiso 1 1 calc GR . . . .
 H19C H 0.7353 0.1492 0.4297 0.033 Uiso 1 1 calc GR . . . .
 C20 C 0.57800(13) 0.37705(13) 0.38671(10) 0.0241(2) Uani 1 1 d . . . . .
 H20A H 0.6216 0.3616 0.4366 0.036 Uiso 1 1 calc GR . . . .
 H20B H 0.4945 0.3648 0.3965 0.036 Uiso 1 1 calc GR . . . .
 H20C H 0.5640 0.4595 0.3591 0.036 Uiso 1 1 calc GR . . . .
 C21 C 0.58878(13) 0.31145(15) 0.26061(10) 0.0241(2) Uani 1 1 d . . . . .
 H21A H 0.5729 0.3933 0.2312 0.036 Uiso 1 1 calc GR . . . .
 H21B H 0.5061 0.2987 0.2735 0.036 Uiso 1 1 calc GR . . . .
 H21C H 0.6405 0.2552 0.2288 0.036 Uiso 1 1 calc GR . . . .
 C22 C 1.24057(12) 0.58378(18) 0.37741(12) 0.0294(3) Uani 1 1 d . . . . .
 H22A H 1.3139 0.5795 0.4076 0.044 Uiso 1 1 calc GR . . . .
 H22B H 1.2468 0.6246 0.3232 0.044 Uiso 1 1 calc GR . . . .
 H22C H 1.2419 0.5029 0.3785 0.044 Uiso 1 1 calc GR . . . .
 C23 C 1.11001(15) 0.59293(16) 0.50015(10) 0.0255(2) Uani 1 1 d . . . . .
 H23A H 1.1179 0.5095 0.5044 0.038 Uiso 1 1 calc GR . . . .
 H23B H 1.0277 0.6349 0.5229 0.038 Uiso 1 1 calc GR . . . .
 H23C H 1.1816 0.5964 0.5283 0.038 Uiso 1 1 calc GR . . . .
 C24 C 1.11452(9) 0.65285(10) 0.41322(7) 0.01604(13) Uani 1 1 d . . . . .
 C25 C 1.11076(14) 0.78104(13) 0.40795(11) 0.0250(2) Uani 1 1 d . . . . .
 H25A H 1.1857 0.7794 0.4355 0.038 Uiso 1 1 calc GR . . . .
 H25B H 1.0312 0.8253 0.4321 0.038 Uiso 1 1 calc GR . . . .
 H25C H 1.1131 0.8202 0.3529 0.038 Uiso 1 1 calc GR . . . .
 C26 C 0.99653(8) 0.65287(8) 0.37077(6) 0.01357(11) Uani 1 1 d . . . . .
 C27 C 0.87201(9) 0.71988(10) 0.39374(7) 0.01613(13) Uani 1 1 d . . . . .
 H27 H 0.8663 0.7677 0.4307 0.019 Uiso 1 1 calc R . . . .
 C28 C 0.75666(8) 0.71991(8) 0.36528(6) 0.01362(11) Uani 1 1 d . . . . .
 C29 C 0.62444(9) 0.78736(10) 0.39758(7) 0.01565(13) Uani 1 1 d . . . . .
 C30 C 0.54537(11) 0.70294(12) 0.41533(8) 0.02008(17) Uani 1 1 d . . . . .
 H30A H 0.5417 0.6728 0.3685 0.030 Uiso 1 1 calc GR . . . .
 H30B H 0.4575 0.7463 0.4306 0.030 Uiso 1 1 calc GR . . . .
 H30C H 0.5865 0.6358 0.4581 0.030 Uiso 1 1 calc GR . . . .
 C31 C 0.55662(11) 0.89570(11) 0.33323(8) 0.01954(16) Uani 1 1 d . . . . .
 H31A H 0.6018 0.9536 0.3260 0.029 Uiso 1 1 calc GR . . . .
 H31B H 0.4669 0.9329 0.3485 0.029 Uiso 1 1 calc GR . . . .
 H31C H 0.5579 0.8697 0.2841 0.029 Uiso 1 1 calc GR . . . .
 C32 C 0.63284(13) 0.83147(16) 0.47139(9) 0.0242(2) Uani 1 1 d . . . . .
 H32A H 0.6784 0.7635 0.5125 0.036 Uiso 1 1 calc GR . . . .
 H32B H 0.5455 0.8712 0.4892 0.036 Uiso 1 1 calc GR . . . .
 H32C H 0.6800 0.8879 0.4597 0.036 Uiso 1 1 calc GR . . . .
 C33 C 1.01905(11) 0.89698(11) 0.15306(8) 0.01856(15) Uani 1 1 d . . . . .
 H33A H 1.0465 0.9664 0.1476 0.028 Uiso 1 1 calc GR . . . .
 H33B H 1.0655 0.8492 0.1151 0.028 Uiso 1 1 calc GR . . . .
 H33C H 1.0383 0.8484 0.2062 0.028 Uiso 1 1 calc GR . . . .
 C34 C 0.80328(15) 1.01283(14) 0.19842(11) 0.0265(3) Uani 1 1 d . . . . .
 H34A H 0.8230 0.9629 0.2511 0.040 Uiso 1 1 calc GR . . . .
 H34B H 0.7098 1.0415 0.1894 0.040 Uiso 1 1 calc GR . . . .
 H34C H 0.8326 1.0811 0.1935 0.040 Uiso 1 1 calc GR . . . .
 C35 C 0.84216(13) 1.01585(12) 0.05460(10) 0.0232(2) Uani 1 1 d . . . . .
 H35A H 0.8776 1.0807 0.0475 0.035 Uiso 1 1 calc GR . . . .
 H35B H 0.7483 1.0496 0.0469 0.035 Uiso 1 1 calc GR . . . .
 H35C H 0.8810 0.9662 0.0163 0.035 Uiso 1 1 calc GR . . . .
 C36 C 0.87289(10) 0.93921(9) 0.13773(7) 0.01601(13) Uani 1 1 d . . . . .
 C37 C 0.82704(9) 0.83191(8) 0.14652(6) 0.01420(11) Uani 1 1 d . . . . .
 C38 C 0.69473(9) 0.85340(9) 0.13282(7) 0.01608(13) Uani 1 1 d . . . . .
 H38 H 0.6385 0.9338 0.1196 0.019 Uiso 1 1 calc R . . . .
 C39 C 0.64225(9) 0.76258(8) 0.13762(6) 0.01425(11) Uani 1 1 d . . . . .
 C40 C 0.49604(9) 0.79297(9) 0.12387(7) 0.01515(12) Uani 1 1 d . . . . .
 C41 C 0.41742(11) 0.92649(11) 0.10799(8) 0.01955(16) Uani 1 1 d . . . . .
 H41A H 0.4250 0.9594 0.1528 0.029 Uiso 1 1 calc GR . . . .
 H41B H 0.3265 0.9381 0.1000 0.029 Uiso 1 1 calc GR . . . .
 H41C H 0.4505 0.9674 0.0610 0.029 Uiso 1 1 calc GR . . . .
 C42 C 0.48212(11) 0.74143(12) 0.05391(8) 0.01973(16) Uani 1 1 d . . . . .
 H42A H 0.5086 0.7861 0.0059 0.030 Uiso 1 1 calc GR . . . .
 H42B H 0.3918 0.7481 0.0490 0.030 Uiso 1 1 calc GR . . . .
 H42C H 0.5371 0.6573 0.0622 0.030 Uiso 1 1 calc GR . . . .
 C43 C 0.44219(12) 0.73004(12) 0.19768(8) 0.01920(15) Uani 1 1 d . . . . .
 H43A H 0.4946 0.6452 0.2100 0.029 Uiso 1 1 calc GR . . . .
 H43B H 0.3526 0.7388 0.1882 0.029 Uiso 1 1 calc GR . . . .
 H43C H 0.4452 0.7662 0.2417 0.029 Uiso 1 1 calc GR . . . .

loop_
  _atom_site_aniso_label
  _atom_site_aniso_U_11
  _atom_site_aniso_U_22
  _atom_site_aniso_U_33
  _atom_site_aniso_U_23
  _atom_site_aniso_U_13
  _atom_site_aniso_U_12
 Dy1 0.00853(1) 0.00982(1) 0.01409(2) -0.00412(1) 0.00045(1) -0.00262(1)
 N1 0.0120(2) 0.0145(2) 0.0178(3) -0.0064(2) 0.00199(19) -0.00494(18)
 N2 0.0128(2) 0.0154(2) 0.0168(3) -0.0066(2) 0.00074(19) -0.00520(19)
 O1 0.01122(18) 0.01150(18) 0.0217(3) -0.00337(19) -0.00073(18) -0.00314(15)
 O2 0.01060(17) 0.01219(19) 0.0205(3) -0.00326(18) 0.00095(17) -0.00369(15)
 O3 0.01087(18) 0.0156(2) 0.0199(3) -0.0079(2) 0.00004(18) -0.00336(17)
 O4 0.01152(18) 0.0175(2) 0.0192(3) -0.0096(2) 0.00082(18) -0.00323(18)
 O5 0.0124(2) 0.01209(19) 0.0232(3) -0.0032(2) -0.0005(2) -0.00321(17)
 O6 0.0136(2) 0.01247(19) 0.0211(3) -0.0035(2) -0.0033(2) -0.00283(17)
 C1 0.0132(3) 0.0181(3) 0.0204(4) -0.0078(3) 0.0017(2) -0.0062(2)
 C2 0.0126(3) 0.0239(4) 0.0238(5) -0.0090(4) 0.0015(3) -0.0067(3)
 C3 0.0130(3) 0.0293(5) 0.0285(6) -0.0143(4) 0.0053(3) -0.0071(3)
 C4 0.0141(3) 0.0245(4) 0.0262(5) -0.0138(4) 0.0051(3) -0.0054(3)
 C5 0.0126(2) 0.0153(3) 0.0178(3) -0.0066(2) 0.0023(2) -0.0044(2)
 C6 0.0144(3) 0.0142(3) 0.0161(3) -0.0061(2) 0.0014(2) -0.0048(2)
 C7 0.0203(4) 0.0182(3) 0.0188(4) -0.0090(3) 0.0035(3) -0.0079(3)
 C8 0.0246(4) 0.0204(4) 0.0198(4) -0.0097(3) 0.0014(3) -0.0105(3)
 C9 0.0210(4) 0.0215(4) 0.0215(4) -0.0085(3) -0.0004(3) -0.0106(3)
 C10 0.0154(3) 0.0195(3) 0.0195(4) -0.0079(3) 0.0003(3) -0.0077(3)
 C11 0.0114(3) 0.0173(3) 0.0312(6) -0.0020(3) -0.0009(3) -0.0034(2)
 C12 0.0187(4) 0.0194(4) 0.0255(5) -0.0106(4) 0.0007(3) -0.0017(3)
 C13 0.0168(3) 0.0173(3) 0.0213(4) -0.0012(3) -0.0027(3) -0.0035(3)
 C14 0.0113(2) 0.0127(2) 0.0199(4) -0.0040(2) -0.0003(2) -0.0015(2)
 C15 0.0103(2) 0.0120(2) 0.0173(3) -0.0039(2) 0.0000(2) -0.00252(18)
 C16 0.0111(2) 0.0123(2) 0.0236(4) -0.0035(2) 0.0010(2) -0.0036(2)
 C17 0.0103(2) 0.0128(2) 0.0180(3) -0.0042(2) 0.0015(2) -0.00414(19)
 C18 0.0115(2) 0.0158(3) 0.0214(4) -0.0055(3) 0.0029(2) -0.0055(2)
 C19 0.0179(4) 0.0179(4) 0.0303(6) -0.0031(4) 0.0044(4) -0.0083(3)
 C20 0.0182(4) 0.0230(4) 0.0343(7) -0.0129(4) 0.0121(4) -0.0090(3)
 C21 0.0174(4) 0.0295(6) 0.0283(6) -0.0044(5) -0.0028(4) -0.0121(4)
 C22 0.0119(3) 0.0404(8) 0.0406(8) -0.0244(7) -0.0004(4) -0.0050(4)
 C23 0.0219(4) 0.0308(6) 0.0241(5) 0.0011(4) -0.0070(4) -0.0124(4)
 C24 0.0123(2) 0.0164(3) 0.0207(4) -0.0063(3) -0.0019(2) -0.0046(2)
 C25 0.0225(4) 0.0193(4) 0.0363(7) -0.0053(4) -0.0066(4) -0.0099(4)
 C26 0.0108(2) 0.0133(2) 0.0173(3) -0.0053(2) -0.0007(2) -0.00349(19)
 C27 0.0116(2) 0.0181(3) 0.0201(4) -0.0094(3) -0.0003(2) -0.0034(2)
 C28 0.0106(2) 0.0141(2) 0.0162(3) -0.0057(2) 0.0006(2) -0.00262(19)
 C29 0.0114(2) 0.0175(3) 0.0182(3) -0.0076(3) 0.0014(2) -0.0029(2)
 C30 0.0160(3) 0.0221(4) 0.0227(5) -0.0062(3) 0.0042(3) -0.0071(3)
 C31 0.0144(3) 0.0163(3) 0.0252(5) -0.0057(3) 0.0009(3) -0.0012(3)
 C32 0.0174(4) 0.0338(6) 0.0241(5) -0.0174(5) 0.0030(3) -0.0056(4)
 C33 0.0174(3) 0.0185(3) 0.0225(4) -0.0065(3) -0.0001(3) -0.0081(3)
 C34 0.0257(5) 0.0244(5) 0.0363(7) -0.0188(5) 0.0107(5) -0.0117(4)
 C35 0.0206(4) 0.0191(4) 0.0271(6) 0.0033(4) -0.0022(4) -0.0080(3)
 C36 0.0156(3) 0.0133(3) 0.0199(4) -0.0051(2) 0.0021(3) -0.0054(2)
 C37 0.0130(2) 0.0120(2) 0.0176(3) -0.0034(2) 0.0009(2) -0.0042(2)
 C38 0.0126(2) 0.0127(2) 0.0221(4) -0.0034(2) -0.0006(2) -0.0033(2)
 C39 0.0116(2) 0.0133(2) 0.0170(3) -0.0035(2) -0.0012(2) -0.0027(2)
 C40 0.0116(2) 0.0166(3) 0.0168(3) -0.0046(2) -0.0004(2) -0.0034(2)
 C41 0.0134(3) 0.0181(3) 0.0240(5) -0.0047(3) 0.0000(3) -0.0013(3)
 C42 0.0151(3) 0.0245(4) 0.0193(4) -0.0084(3) -0.0016(3) -0.0037(3)
 C43 0.0171(3) 0.0225(4) 0.0192(4) -0.0040(3) 0.0008(3) -0.0086(3)

_geom_special_details
;
 All esds (except the esd in the dihedral angle between two l.s. planes)
 are estimated using the full covariance matrix.  The cell esds are taken
 into account individually in the estimation of esds in distances, angles
 and torsion angles; correlations between esds in cell parameters are only
 used when they are defined by crystal symmetry.  An approximate (isotropic)
 treatment of cell esds is used for estimating esds involving l.s. planes.
;
loop_
  _geom_bond_atom_site_label_1
  _geom_bond_atom_site_label_2
  _geom_bond_distance
  _geom_bond_site_symmetry_2
  _geom_bond_publ_flag
 Dy1 N1 2.5870(8) . ?
 Dy1 N2 2.5887(8) . ?
 Dy1 O1 2.3027(8) . ?
 Dy1 O2 2.3084(7) . ?
 Dy1 O3 2.3539(8) . ?
 Dy1 O4 2.2821(7) . ?
 Dy1 O5 2.3283(8) . ?
 Dy1 O6 2.3425(8) . ?
 N1 C1 1.3391(13) . ?
 N1 C5 1.3463(13) . ?
 N2 C6 1.3508(13) . ?
 N2 C10 1.3386(13) . ?
 O1 C15 1.2586(12) . ?
 O2 C17 1.2707(12) . ?
 O3 C26 1.2656(12) . ?
 O4 C28 1.2701(12) . ?
 O5 C37 1.2611(12) . ?
 O6 C39 1.2726(12) . ?
 C1 H1 0.9500 . ?
 C1 C2 1.3931(15) . ?
 C2 H2 0.9500 . ?
 C2 C3 1.3887(18) . ?
 C3 H3 0.9500 . ?
 C3 C4 1.3900(18) . ?
 C4 H4 0.9500 . ?
 C4 C5 1.3979(14) . ?
 C5 C6 1.4845(14) . ?
 C6 C7 1.3985(14) . ?
 C7 H7 0.9500 . ?
 C7 C8 1.3908(17) . ?
 C8 H8 0.9500 . ?
 C8 C9 1.3900(19) . ?
 C9 H9 0.9500 . ?
 C9 C10 1.3950(16) . ?
 C10 H10 0.9500 . ?
 C11 H11A 0.9800 . ?
 C11 H11B 0.9800 . ?
 C11 H11C 0.9800 . ?
 C11 C14 1.5362(15) . ?
 C12 H12A 0.9800 . ?
 C12 H12B 0.9800 . ?
 C12 H12C 0.9800 . ?
 C12 C14 1.5375(17) . ?
 C13 H13A 0.9800 . ?
 C13 H13B 0.9800 . ?
 C13 H13C 0.9800 . ?
 C13 C14 1.5350(17) . ?
 C14 C15 1.5419(12) . ?
 C15 C16 1.4138(13) . ?
 C16 H16 0.9500 . ?
 C16 C17 1.4037(13) . ?
 C17 C18 1.5403(13) . ?
 C18 C19 1.5302(17) . ?
 C18 C20 1.5343(16) . ?
 C18 C21 1.5365(19) . ?
 C19 H19A 0.9800 . ?
 C19 H19B 0.9800 . ?
 C19 H19C 0.9800 . ?
 C20 H20A 0.9800 . ?
 C20 H20B 0.9800 . ?
 C20 H20C 0.9800 . ?
 C21 H21A 0.9800 . ?
 C21 H21B 0.9800 . ?
 C21 H21C 0.9800 . ?
 C22 H22A 0.9800 . ?
 C22 H22B 0.9800 . ?
 C22 H22C 0.9800 . ?
 C22 C24 1.5273(17) . ?
 C23 H23A 0.9800 . ?
 C23 H23B 0.9800 . ?
 C23 H23C 0.9800 . ?
 C23 C24 1.542(2) . ?
 C24 C25 1.5356(17) . ?
 C24 C26 1.5473(13) . ?
 C25 H25A 0.9800 . ?
 C25 H25B 0.9800 . ?
 C25 H25C 0.9800 . ?
 C26 C27 1.4158(13) . ?
 C27 H27 0.9500 . ?
 C27 C28 1.4013(13) . ?
 C28 C29 1.5425(12) . ?
 C29 C30 1.5378(17) . ?
 C29 C31 1.5361(17) . ?
 C29 C32 1.5293(17) . ?
 C30 H30A 0.9800 . ?
 C30 H30B 0.9800 . ?
 C30 H30C 0.9800 . ?
 C31 H31A 0.9800 . ?
 C31 H31B 0.9800 . ?
 C31 H31C 0.9800 . ?
 C32 H32A 0.9800 . ?
 C32 H32B 0.9800 . ?
 C32 H32C 0.9800 . ?
 C33 H33A 0.9800 . ?
 C33 H33B 0.9800 . ?
 C33 H33C 0.9800 . ?
 C33 C36 1.5378(16) . ?
 C34 H34A 0.9800 . ?
 C34 H34B 0.9800 . ?
 C34 H34C 0.9800 . ?
 C34 C36 1.5355(17) . ?
 C35 H35A 0.9800 . ?
 C35 H35B 0.9800 . ?
 C35 H35C 0.9800 . ?
 C35 C36 1.5369(19) . ?
 C36 C37 1.5362(14) . ?
 C37 C38 1.4200(14) . ?
 C38 H38 0.9500 . ?
 C38 C39 1.4047(14) . ?
 C39 C40 1.5496(13) . ?
 C40 C41 1.5318(16) . ?
 C40 C42 1.5382(16) . ?
 C40 C43 1.5419(17) . ?
 C41 H41A 0.9800 . ?
 C41 H41B 0.9800 . ?
 C41 H41C 0.9800 . ?
 C42 H42A 0.9800 . ?
 C42 H42B 0.9800 . ?
 C42 H42C 0.9800 . ?
 C43 H43A 0.9800 . ?
 C43 H43B 0.9800 . ?
 C43 H43C 0.9800 . ?

loop_
  _geom_angle_atom_site_label_1
  _geom_angle_atom_site_label_2
  _geom_angle_atom_site_label_3
  _geom_angle
  _geom_angle_site_symmetry_1
  _geom_angle_site_symmetry_3
  _geom_angle_publ_flag
 N1 Dy1 N2 61.99(3) . . ?
 O1 Dy1 N1 70.30(3) . . ?
 O1 Dy1 N2 76.78(3) . . ?
 O1 Dy1 O2 72.62(3) . . ?
 O1 Dy1 O3 76.44(3) . . ?
 O1 Dy1 O5 135.60(3) . . ?
 O1 Dy1 O6 143.58(3) . . ?
 O2 Dy1 N1 130.29(3) . . ?
 O2 Dy1 N2 78.26(3) . . ?
 O2 Dy1 O3 119.84(3) . . ?
 O2 Dy1 O5 151.65(3) . . ?
 O2 Dy1 O6 81.23(3) . . ?
 O3 Dy1 N1 81.79(3) . . ?
 O3 Dy1 N2 140.47(3) . . ?
 O4 Dy1 N1 148.26(3) . . ?
 O4 Dy1 N2 146.36(3) . . ?
 O4 Dy1 O1 120.25(3) . . ?
 O4 Dy1 O2 80.05(3) . . ?
 O4 Dy1 O3 73.05(3) . . ?
 O4 Dy1 O5 84.72(3) . . ?
 O4 Dy1 O6 78.19(3) . . ?
 O5 Dy1 N1 70.93(3) . . ?
 O5 Dy1 N2 102.98(3) . . ?
 O5 Dy1 O3 77.42(3) . . ?
 O5 Dy1 O6 72.29(3) . . ?
 O6 Dy1 N1 111.70(3) . . ?
 O6 Dy1 N2 73.35(3) . . ?
 O6 Dy1 O3 139.68(3) . . ?
 C1 N1 Dy1 118.31(7) . . ?
 C1 N1 C5 118.43(8) . . ?
 C5 N1 Dy1 122.41(6) . . ?
 C6 N2 Dy1 122.54(6) . . ?
 C10 N2 Dy1 118.69(7) . . ?
 C10 N2 C6 118.72(9) . . ?
 C15 O1 Dy1 136.79(6) . . ?
 C17 O2 Dy1 137.22(6) . . ?
 C26 O3 Dy1 135.96(6) . . ?
 C28 O4 Dy1 138.47(6) . . ?
 C37 O5 Dy1 130.26(7) . . ?
 C39 O6 Dy1 128.83(7) . . ?
 N1 C1 H1 118.5 . . ?
 N1 C1 C2 123.09(10) . . ?
 C2 C1 H1 118.5 . . ?
 C1 C2 H2 120.8 . . ?
 C3 C2 C1 118.48(10) . . ?
 C3 C2 H2 120.8 . . ?
 C2 C3 H3 120.6 . . ?
 C2 C3 C4 118.88(10) . . ?
 C4 C3 H3 120.6 . . ?
 C3 C4 H4 120.4 . . ?
 C3 C4 C5 119.11(11) . . ?
 C5 C4 H4 120.4 . . ?
 N1 C5 C4 121.98(10) . . ?
 N1 C5 C6 115.84(8) . . ?
 C4 C5 C6 122.18(9) . . ?
 N2 C6 C5 115.95(8) . . ?
 N2 C6 C7 121.83(9) . . ?
 C7 C6 C5 122.18(9) . . ?
 C6 C7 H7 120.5 . . ?
 C8 C7 C6 118.92(10) . . ?
 C8 C7 H7 120.5 . . ?
 C7 C8 H8 120.4 . . ?
 C9 C8 C7 119.23(10) . . ?
 C9 C8 H8 120.4 . . ?
 C8 C9 H9 120.8 . . ?
 C8 C9 C10 118.34(10) . . ?
 C10 C9 H9 120.8 . . ?
 N2 C10 C9 122.92(10) . . ?
 N2 C10 H10 118.5 . . ?
 C9 C10 H10 118.5 . . ?
 H11A C11 H11B 109.5 . . ?
 H11A C11 H11C 109.5 . . ?
 H11B C11 H11C 109.5 . . ?
 C14 C11 H11A 109.5 . . ?
 C14 C11 H11B 109.5 . . ?
 C14 C11 H11C 109.5 . . ?
 H12A C12 H12B 109.5 . . ?
 H12A C12 H12C 109.5 . . ?
 H12B C12 H12C 109.5 . . ?
 C14 C12 H12A 109.5 . . ?
 C14 C12 H12B 109.5 . . ?
 C14 C12 H12C 109.5 . . ?
 H13A C13 H13B 109.5 . . ?
 H13A C13 H13C 109.5 . . ?
 H13B C13 H13C 109.5 . . ?
 C14 C13 H13A 109.5 . . ?
 C14 C13 H13B 109.5 . . ?
 C14 C13 H13C 109.5 . . ?
 C11 C14 C12 109.51(10) . . ?
 C11 C14 C13 109.63(10) . . ?
 C11 C14 C15 109.58(8) . . ?
 C12 C14 C15 108.24(9) . . ?
 C13 C14 C12 109.69(10) . . ?
 C13 C14 C15 110.17(9) . . ?
 O1 C15 C14 116.98(8) . . ?
 O1 C15 C16 123.97(8) . . ?
 C16 C15 C14 119.05(8) . . ?
 C15 C16 H16 118.4 . . ?
 C17 C16 C15 123.15(9) . . ?
 C17 C16 H16 118.4 . . ?
 O2 C17 C16 124.03(8) . . ?
 O2 C17 C18 115.15(8) . . ?
 C16 C17 C18 120.82(9) . . ?
 C19 C18 C17 114.12(9) . . ?
 C19 C18 C20 109.15(11) . . ?
 C19 C18 C21 109.05(11) . . ?
 C20 C18 C17 108.06(9) . . ?
 C20 C18 C21 108.78(11) . . ?
 C21 C18 C17 107.55(10) . . ?
 C18 C19 H19A 109.5 . . ?
 C18 C19 H19B 109.5 . . ?
 C18 C19 H19C 109.5 . . ?
 H19A C19 H19B 109.5 . . ?
 H19A C19 H19C 109.5 . . ?
 H19B C19 H19C 109.5 . . ?
 C18 C20 H20A 109.5 . . ?
 C18 C20 H20B 109.5 . . ?
 C18 C20 H20C 109.5 . . ?
 H20A C20 H20B 109.5 . . ?
 H20A C20 H20C 109.5 . . ?
 H20B C20 H20C 109.5 . . ?
 C18 C21 H21A 109.5 . . ?
 C18 C21 H21B 109.5 . . ?
 C18 C21 H21C 109.5 . . ?
 H21A C21 H21B 109.5 . . ?
 H21A C21 H21C 109.5 . . ?
 H21B C21 H21C 109.5 . . ?
 H22A C22 H22B 109.5 . . ?
 H22A C22 H22C 109.5 . . ?
 H22B C22 H22C 109.5 . . ?
 C24 C22 H22A 109.5 . . ?
 C24 C22 H22B 109.5 . . ?
 C24 C22 H22C 109.5 . . ?
 H23A C23 H23B 109.5 . . ?
 H23A C23 H23C 109.5 . . ?
 H23B C23 H23C 109.5 . . ?
 C24 C23 H23A 109.5 . . ?
 C24 C23 H23B 109.5 . . ?
 C24 C23 H23C 109.5 . . ?
 C22 C24 C23 109.08(13) . . ?
 C22 C24 C25 109.04(12) . . ?
 C22 C24 C26 110.77(9) . . ?
 C23 C24 C26 108.65(9) . . ?
 C25 C24 C23 108.72(12) . . ?
 C25 C24 C26 110.55(9) . . ?
 C24 C25 H25A 109.5 . . ?
 C24 C25 H25B 109.5 . . ?
 C24 C25 H25C 109.5 . . ?
 H25A C25 H25B 109.5 . . ?
 H25A C25 H25C 109.5 . . ?
 H25B C25 H25C 109.5 . . ?
 O3 C26 C24 118.06(8) . . ?
 O3 C26 C27 124.15(9) . . ?
 C27 C26 C24 117.76(8) . . ?
 C26 C27 H27 118.0 . . ?
 C28 C27 C26 123.94(9) . . ?
 C28 C27 H27 118.0 . . ?
 O4 C28 C27 124.13(8) . . ?
 O4 C28 C29 114.69(8) . . ?
 C27 C28 C29 121.17(9) . . ?
 C30 C29 C28 107.83(9) . . ?
 C31 C29 C28 107.49(9) . . ?
 C31 C29 C30 109.56(10) . . ?
 C32 C29 C28 114.14(9) . . ?
 C32 C29 C30 109.23(11) . . ?
 C32 C29 C31 108.52(10) . . ?
 C29 C30 H30A 109.5 . . ?
 C29 C30 H30B 109.5 . . ?
 C29 C30 H30C 109.5 . . ?
 H30A C30 H30B 109.5 . . ?
 H30A C30 H30C 109.5 . . ?
 H30B C30 H30C 109.5 . . ?
 C29 C31 H31A 109.5 . . ?
 C29 C31 H31B 109.5 . . ?
 C29 C31 H31C 109.5 . . ?
 H31A C31 H31B 109.5 . . ?
 H31A C31 H31C 109.5 . . ?
 H31B C31 H31C 109.5 . . ?
 C29 C32 H32A 109.5 . . ?
 C29 C32 H32B 109.5 . . ?
 C29 C32 H32C 109.5 . . ?
 H32A C32 H32B 109.5 . . ?
 H32A C32 H32C 109.5 . . ?
 H32B C32 H32C 109.5 . . ?
 H33A C33 H33B 109.5 . . ?
 H33A C33 H33C 109.5 . . ?
 H33B C33 H33C 109.5 . . ?
 C36 C33 H33A 109.5 . . ?
 C36 C33 H33B 109.5 . . ?
 C36 C33 H33C 109.5 . . ?
 H34A C34 H34B 109.5 . . ?
 H34A C34 H34C 109.5 . . ?
 H34B C34 H34C 109.5 . . ?
 C36 C34 H34A 109.5 . . ?
 C36 C34 H34B 109.5 . . ?
 C36 C34 H34C 109.5 . . ?
 H35A C35 H35B 109.5 . . ?
 H35A C35 H35C 109.5 . . ?
 H35B C35 H35C 109.5 . . ?
 C36 C35 H35A 109.5 . . ?
 C36 C35 H35B 109.5 . . ?
 C36 C35 H35C 109.5 . . ?
 C34 C36 C33 108.05(11) . . ?
 C34 C36 C35 110.23(12) . . ?
 C35 C36 C33 109.68(10) . . ?
 C37 C36 C33 110.54(8) . . ?
 C37 C36 C34 108.97(9) . . ?
 C37 C36 C35 109.35(10) . . ?
 O5 C37 C36 117.06(9) . . ?
 O5 C37 C38 124.25(9) . . ?
 C38 C37 C36 118.69(8) . . ?
 C37 C38 H38 118.1 . . ?
 C39 C38 C37 123.78(9) . . ?
 C39 C38 H38 118.1 . . ?
 O6 C39 C38 123.88(9) . . ?
 O6 C39 C40 115.29(9) . . ?
 C38 C39 C40 120.83(8) . . ?
 C41 C40 C39 114.54(9) . . ?
 C41 C40 C42 109.24(10) . . ?
 C41 C40 C43 108.73(9) . . ?
 C42 C40 C39 107.73(8) . . ?
 C42 C40 C43 109.00(10) . . ?
 C43 C40 C39 107.48(9) . . ?
 C40 C41 H41A 109.5 . . ?
 C40 C41 H41B 109.5 . . ?
 C40 C41 H41C 109.5 . . ?
 H41A C41 H41B 109.5 . . ?
 H41A C41 H41C 109.5 . . ?
 H41B C41 H41C 109.5 . . ?
 C40 C42 H42A 109.5 . . ?
 C40 C42 H42B 109.5 . . ?
 C40 C42 H42C 109.5 . . ?
 H42A C42 H42B 109.5 . . ?
 H42A C42 H42C 109.5 . . ?
 H42B C42 H42C 109.5 . . ?
 C40 C43 H43A 109.5 . . ?
 C40 C43 H43B 109.5 . . ?
 C40 C43 H43C 109.5 . . ?
 H43A C43 H43B 109.5 . . ?
 H43A C43 H43C 109.5 . . ?
 H43B C43 H43C 109.5 . . ?

_shelx_SHELXL_version_number      '2014/7'
_olex2_submission_special_instructions 'No special instructions were received'
